50
12217

280 734
169 474
444 768
611 759
506 273
250 713
389 330
205 615
723 552
904 349
74 190
809 797
746 726
691 621
971 37
624 643
762 216
466 414
309 667
248 327
945 591
452 834
668 74
742 22
754 91
562 663
287 661
5 793
981 712
754 286
161 11
442 74
599 551
738 698
83 166
858 774
568 683
387 336
744 990
335 585
187 361
158 48
336 485
791 226
788 321
747 740
979 248
160 899
862 297
625 839
